(set-logic HORN)

(declare-datatypes ((TSLL 0)) (((TSLL  (next Int) (prev Int) (data Int)))))
(declare-datatypes ((HeapObject 0)) (((O_Int  (getInt Int)) (O_UInt  (getUInt Int)) (O_Addr  (getAddr Int)) (O_TSLL  (getTSLL TSLL)) (defObj ))))
(declare-datatypes ((Heap 0)) (((HeapCtor  (HeapSize Int) (HeapContents (Array Int HeapObject))))))

(declare-fun |inv_main11| ( Heap Int Int ) Bool)
(declare-fun |inv_main51| ( Heap Int Int ) Bool)
(declare-fun |inv_main4| ( Heap Int ) Bool)
(declare-fun |inv_main7| ( Heap Int Int ) Bool)
(declare-fun |inv_main2| ( Heap ) Bool)
(declare-fun |inv_main74| ( Heap Int Int ) Bool)
(declare-fun |inv_main0| ( Heap Int ) Bool)
(declare-fun |inv_main65| ( Heap Int Int ) Bool)
(declare-fun |inv_main49| ( Heap Int Int ) Bool)
(declare-fun |inv_main40| ( Heap Int Int Int Int ) Bool)
(declare-fun |inv_main39| ( Heap Int Int Int ) Bool)
(declare-fun |inv_main32| ( Heap Int Int ) Bool)
(declare-fun |inv_main22| ( Heap Int Int ) Bool)
(declare-fun |inv_main46| ( Heap Int Int Int ) Bool)
(declare-fun |inv_main41| ( Heap Int Int Int ) Bool)
(declare-fun |inv_main3| ( Heap Int ) Bool)
(declare-fun |inv_main13| ( Heap Int Int ) Bool)
(declare-fun |CHC_COMP_FALSE| ( ) Bool)
(declare-fun |inv_main71| ( Heap Int Int ) Bool)
(declare-fun |inv_main44| ( Heap Int Int Int ) Bool)
(declare-fun |inv_main28| ( Heap Int Int ) Bool)
(declare-fun |inv_main25| ( Heap Int Int ) Bool)
(declare-fun |inv_main5| ( Heap Int ) Bool)
(declare-fun |inv_main58| ( Heap Int Int ) Bool)
(declare-fun |inv_main47| ( Heap Int Int Int Int ) Bool)
(declare-fun |inv_main16| ( Heap Int Int ) Bool)
(declare-fun |inv_main12| ( Heap Int Int Int ) Bool)
(declare-fun |inv_main14| ( Heap Int Int ) Bool)
(declare-fun |inv_main24| ( Heap Int Int ) Bool)
(declare-fun |inv_main29| ( Heap Int Int ) Bool)
(declare-fun |inv_main50| ( Heap Int Int ) Bool)
(declare-fun |inv_main59| ( Heap Int Int ) Bool)

(assert
  (forall ( (v_0 Heap) ) 
    (=>
      (and
        (and true (= v_0 (HeapCtor 0 ((as const (Array Int HeapObject)) defObj))))
      )
      (inv_main2 v_0)
    )
  )
)
(assert
  (forall ( (A Int) (B Int) (C Heap) (D Int) (E Int) (F Int) (G Heap) (H Int) (I Int) (J Heap) ) 
    (=>
      (and
        (inv_main74 J I H)
        (let ((a!1 (ite (and (not (<= H 0)) (>= (HeapSize J) H))
                (select (HeapContents J) H)
                defObj))
      (a!2 (ite (and (not (<= F 0)) (>= (HeapSize G) F))
                (HeapCtor (HeapSize G) (store (HeapContents G) F defObj))
                G)))
  (and (= E H)
       (= D (next (getTSLL a!1)))
       (= B F)
       (= A D)
       (= G J)
       (= C a!2)
       ((_ is O_TSLL) a!1)
       (= F I)))
      )
      (inv_main71 C B A)
    )
  )
)
(assert
  (forall ( (A Int) (B Int) (C Heap) (D Int) (E Int) (F Int) (G Heap) (v_7 Int) ) 
    (=>
      (and
        (inv_main50 G F E)
        (let ((a!1 (ite (and (not (<= E 0)) (>= (HeapSize G) E))
                (select (HeapContents G) E)
                defObj)))
  (and (= D (next (getTSLL a!1)))
       (= B F)
       (= A E)
       (= C G)
       ((_ is O_TSLL) a!1)
       (= D 0)
       (= v_7 B)))
      )
      (inv_main71 C B v_7)
    )
  )
)
(assert
  (forall ( (A Int) (B Int) (C Heap) (D Int) (E Int) (F Int) (G Heap) (v_7 Int) ) 
    (=>
      (and
        (inv_main59 G F E)
        (let ((a!1 (ite (and (not (<= E 0)) (>= (HeapSize G) E))
                (select (HeapContents G) E)
                defObj)))
  (and (= D (next (getTSLL a!1)))
       (= B F)
       (= A E)
       (= C G)
       ((_ is O_TSLL) a!1)
       (= D 0)
       (= v_7 B)))
      )
      (inv_main71 C B v_7)
    )
  )
)
(assert
  (forall ( (A Int) (B Int) (C Heap) (D Int) (E Int) (F Int) (G Heap) ) 
    (=>
      (and
        (inv_main58 G F E)
        (let ((a!1 (ite (and (not (<= E 0)) (>= (HeapSize G) E))
                (select (HeapContents G) E)
                defObj)))
  (and (= D (data (getTSLL a!1)))
       (= B F)
       (= A E)
       (= C G)
       ((_ is O_TSLL) a!1)
       (= D 1)))
      )
      (inv_main65 C B A)
    )
  )
)
(assert
  (forall ( (A Int) (B Int) (C Heap) (v_3 Int) ) 
    (=>
      (and
        (inv_main71 C B A)
        (and (not (= A 0)) (= v_3 A))
      )
      (inv_main74 C A v_3)
    )
  )
)
(assert
  (forall ( (A Int) (B Int) (C Int) (D Int) (E Heap) (v_5 Int) ) 
    (=>
      (and
        (inv_main7 E D C)
        (and (= A 0) (= B 0) (= v_5 D))
      )
      (inv_main28 E D v_5)
    )
  )
)
(assert
  (forall ( (A Int) (B Int) (C Int) (D Heap) (E Int) (F Int) (G Heap) ) 
    (=>
      (and
        (inv_main32 G F E)
        (let ((a!1 (ite (and (not (<= E 0)) (>= (HeapSize G) E))
                (select (HeapContents G) E)
                defObj)))
  (and (= B E) (= A (next (getTSLL a!1))) (= D G) ((_ is O_TSLL) a!1) (= C F)))
      )
      (inv_main28 D C A)
    )
  )
)
(assert
  (forall ( (A Heap) (B Int) (C Int) (D Int) (E Heap) ) 
    (=>
      (and
        (inv_main39 E D C B)
        (let ((a!1 (ite (and (not (<= C 0)) (>= (HeapSize E) C))
                (select (HeapContents E) C)
                defObj)))
(let ((a!2 (O_TSLL (TSLL (next (getTSLL a!1)) (prev (getTSLL a!1)) 1))))
(let ((a!3 (ite (and (not (<= C 0)) (>= (HeapSize E) C))
                (HeapCtor (HeapSize E) (store (HeapContents E) C a!2))
                E)))
  (and ((_ is O_TSLL) a!1) (= A a!3)))))
      )
      (inv_main41 A D C B)
    )
  )
)
(assert
  (forall ( (A Heap) (B Int) (C Int) (D Int) (E Int) (F Heap) ) 
    (=>
      (and
        (inv_main40 F E D C B)
        (let ((a!1 (ite (and (not (<= D 0)) (>= (HeapSize F) D))
                (select (HeapContents F) D)
                defObj)))
(let ((a!2 (O_TSLL (TSLL B (prev (getTSLL a!1)) (data (getTSLL a!1))))))
(let ((a!3 (ite (and (not (<= D 0)) (>= (HeapSize F) D))
                (HeapCtor (HeapSize F) (store (HeapContents F) D a!2))
                F)))
  (and ((_ is O_TSLL) a!1) (= A a!3)))))
      )
      (inv_main39 A E D C)
    )
  )
)
(assert
  (forall ( (A Heap) (B Int) (C Int) (D Heap) ) 
    (=>
      (and
        (inv_main22 D C B)
        (let ((a!1 (ite (and (not (<= B 0)) (>= (HeapSize D) B))
                (select (HeapContents D) B)
                defObj)))
(let ((a!2 (O_TSLL (TSLL (next (getTSLL a!1)) (prev (getTSLL a!1)) 1))))
(let ((a!3 (ite (and (not (<= B 0)) (>= (HeapSize D) B))
                (HeapCtor (HeapSize D) (store (HeapContents D) B a!2))
                D)))
  (and ((_ is O_TSLL) a!1) (= A a!3)))))
      )
      (inv_main24 A C B)
    )
  )
)
(assert
  (forall ( (A Int) (B Int) (C Int) (D Heap) (E Int) (F Int) (G Heap) ) 
    (=>
      (and
        (inv_main51 G F E)
        (let ((a!1 (ite (and (not (<= E 0)) (>= (HeapSize G) E))
                (select (HeapContents G) E)
                defObj)))
  (and (= B E) (= A (next (getTSLL a!1))) (= D G) ((_ is O_TSLL) a!1) (= C F)))
      )
      (inv_main49 D C A)
    )
  )
)
(assert
  (forall ( (A Int) (B Int) (C Heap) (D Int) (E Int) (F Int) (G Int) (H Heap) (v_8 Int) ) 
    (=>
      (and
        (inv_main41 H G F E)
        (let ((a!1 (ite (and (not (<= F 0)) (>= (HeapSize H) F))
                (select (HeapContents H) F)
                defObj)))
(let ((a!2 (O_TSLL (TSLL E (prev (getTSLL a!1)) (data (getTSLL a!1))))))
(let ((a!3 (ite (and (not (<= F 0)) (>= (HeapSize H) F))
                (HeapCtor (HeapSize H) (store (HeapContents H) F a!2))
                H)))
  (and (= D 0) (= D E) (= B G) (= C a!3) ((_ is O_TSLL) a!1) (= A F) (= v_8 B)))))
      )
      (inv_main49 C B v_8)
    )
  )
)
(assert
  (forall ( (A Int) (B Int) (C Int) (D Heap) (E Int) (F Int) (G Int) (H Heap) (v_8 Int) ) 
    (=>
      (and
        (inv_main46 H G F E)
        (let ((a!1 (ite (and (not (<= E 0)) (>= (HeapSize H) E))
                (select (HeapContents H) E)
                defObj)))
(let ((a!2 (O_TSLL (TSLL (next (getTSLL a!1)) F (data (getTSLL a!1))))))
(let ((a!3 (ite (and (not (<= E 0)) (>= (HeapSize H) E))
                (HeapCtor (HeapSize H) (store (HeapContents H) E a!2))
                H)))
  (and (= C G) (= B F) (= D a!3) ((_ is O_TSLL) a!1) (= A E) (= v_8 C)))))
      )
      (inv_main49 D C v_8)
    )
  )
)
(assert
  (forall ( (A Int) (B Int) (C Heap) (D Int) (E Int) (F Heap) (v_6 Int) ) 
    (=>
      (and
        (inv_main25 F E D)
        (let ((a!1 (ite (and (not (<= D 0)) (>= (HeapSize F) D))
                (select (HeapContents F) D)
                defObj)))
(let ((a!2 (O_TSLL (TSLL (next (getTSLL a!1)) 0 (data (getTSLL a!1))))))
(let ((a!3 (ite (and (not (<= D 0)) (>= (HeapSize F) D))
                (HeapCtor (HeapSize F) (store (HeapContents F) D a!2))
                F)))
  (and (= A D) (= C a!3) ((_ is O_TSLL) a!1) (= B E) (= v_6 A)))))
      )
      (inv_main49 C A v_6)
    )
  )
)
(assert
  (forall ( (A Int) (B Int) (C Heap) (D Int) (E Int) (F Int) (G Heap) ) 
    (=>
      (and
        (inv_main50 G F E)
        (let ((a!1 (ite (and (not (<= E 0)) (>= (HeapSize G) E))
                (select (HeapContents G) E)
                defObj)))
  (and (= D (next (getTSLL a!1)))
       (= B F)
       (= A E)
       (= C G)
       ((_ is O_TSLL) a!1)
       (not (= D 0))))
      )
      (inv_main58 C B D)
    )
  )
)
(assert
  (forall ( (A Int) (B Int) (C Heap) (D Int) (E Int) (F Int) (G Heap) ) 
    (=>
      (and
        (inv_main59 G F E)
        (let ((a!1 (ite (and (not (<= E 0)) (>= (HeapSize G) E))
                (select (HeapContents G) E)
                defObj)))
  (and (= D (next (getTSLL a!1)))
       (= B F)
       (= A E)
       (= C G)
       ((_ is O_TSLL) a!1)
       (not (= D 0))))
      )
      (inv_main58 C B D)
    )
  )
)
(assert
  (forall ( (A Int) (B Int) (C Heap) (D Int) (E Int) (F Int) (G Heap) ) 
    (=>
      (and
        (inv_main49 G F E)
        (let ((a!1 (ite (and (not (<= E 0)) (>= (HeapSize G) E))
                (select (HeapContents G) E)
                defObj)))
  (and (= D (data (getTSLL a!1)))
       (= B F)
       (= A E)
       (= C G)
       ((_ is O_TSLL) a!1)
       (not (= D 1))))
      )
      (inv_main51 C B A)
    )
  )
)
(assert
  (forall ( (A Heap) (B Int) (C Int) (D Int) (E Int) (F Heap) ) 
    (=>
      (and
        (inv_main47 F E D C B)
        (let ((a!1 (ite (and (not (<= D 0)) (>= (HeapSize F) D))
                (select (HeapContents F) D)
                defObj)))
(let ((a!2 (O_TSLL (TSLL (next (getTSLL a!1)) B (data (getTSLL a!1))))))
(let ((a!3 (ite (and (not (<= D 0)) (>= (HeapSize F) D))
                (HeapCtor (HeapSize F) (store (HeapContents F) D a!2))
                F)))
  (and ((_ is O_TSLL) a!1) (= A a!3)))))
      )
      (inv_main46 A E D C)
    )
  )
)
(assert
  (forall ( (A Int) (B Int) (C Heap) (D Int) (E Int) (F Heap) ) 
    (=>
      (and
        (inv_main16 F E D)
        (let ((a!1 (ite (and (not (<= D 0)) (>= (HeapSize F) D))
                (select (HeapContents F) D)
                defObj)))
(let ((a!2 (O_TSLL (TSLL 0 (prev (getTSLL a!1)) (data (getTSLL a!1))))))
(let ((a!3 (ite (and (not (<= D 0)) (>= (HeapSize F) D))
                (HeapCtor (HeapSize F) (store (HeapContents F) D a!2))
                F)))
  (and (= A D) (= C a!3) ((_ is O_TSLL) a!1) (= B E)))))
      )
      (inv_main7 C B A)
    )
  )
)
(assert
  (forall ( (A Int) (B Heap) (C Int) (D Heap) (v_4 Int) ) 
    (=>
      (and
        (inv_main5 D C)
        (let ((a!1 (ite (and (not (<= C 0)) (>= (HeapSize D) C))
                (select (HeapContents D) C)
                defObj)))
(let ((a!2 (O_TSLL (TSLL (next (getTSLL a!1)) (prev (getTSLL a!1)) 0))))
(let ((a!3 (ite (and (not (<= C 0)) (>= (HeapSize D) C))
                (HeapCtor (HeapSize D) (store (HeapContents D) C a!2))
                D)))
  (and (= B a!3) ((_ is O_TSLL) a!1) (= A C) (= v_4 A)))))
      )
      (inv_main7 B A v_4)
    )
  )
)
(assert
  (forall ( (A Int) (B Int) (C Heap) (D Int) (E Int) (F Int) (G Heap) ) 
    (=>
      (and
        (inv_main28 G F E)
        (let ((a!1 (ite (and (not (<= E 0)) (>= (HeapSize G) E))
                (select (HeapContents G) E)
                defObj)))
  (and (= D (next (getTSLL a!1)))
       (= B F)
       (= A E)
       (= C G)
       ((_ is O_TSLL) a!1)
       (= D 0)))
      )
      (inv_main29 C B A)
    )
  )
)
(assert
  (forall ( (A Int) (B Int) (C Heap) (D Int) (E Int) (F Int) (G Int) (H Heap) ) 
    (=>
      (and
        (inv_main28 H G F)
        (let ((a!1 (ite (and (not (<= F 0)) (>= (HeapSize H) F))
                (select (HeapContents H) F)
                defObj)))
  (and (not (= E 0))
       (not (= D 0))
       (= D (next (getTSLL a!1)))
       (= B G)
       (= C H)
       ((_ is O_TSLL) a!1)
       (= A F)))
      )
      (inv_main29 C B A)
    )
  )
)
(assert
  (forall ( (A Heap) (B Int) (C Int) (D Int) (E Heap) ) 
    (=>
      (and
        (inv_main12 E D C B)
        (let ((a!1 (ite (and (not (<= C 0)) (>= (HeapSize E) C))
                (select (HeapContents E) C)
                defObj)))
(let ((a!2 (O_TSLL (TSLL B (prev (getTSLL a!1)) (data (getTSLL a!1))))))
(let ((a!3 (ite (and (not (<= C 0)) (>= (HeapSize E) C))
                (HeapCtor (HeapSize E) (store (HeapContents E) C a!2))
                E)))
  (and ((_ is O_TSLL) a!1) (= A a!3)))))
      )
      (inv_main11 A D C)
    )
  )
)
(assert
  (forall ( (A Heap) (B Int) (C Int) (D Heap) ) 
    (=>
      (and
        (inv_main14 D C B)
        (let ((a!1 (ite (and (not (<= B 0)) (>= (HeapSize D) B))
                (select (HeapContents D) B)
                defObj)))
(let ((a!2 (O_TSLL (TSLL (next (getTSLL a!1)) (prev (getTSLL a!1)) 0))))
(let ((a!3 (ite (and (not (<= B 0)) (>= (HeapSize D) B))
                (HeapCtor (HeapSize D) (store (HeapContents D) B a!2))
                D)))
  (and ((_ is O_TSLL) a!1) (= A a!3)))))
      )
      (inv_main16 A C B)
    )
  )
)
(assert
  (forall ( (A Int) (B Int) (C Int) (D Heap) (E Int) (F Int) (G Heap) ) 
    (=>
      (and
        (inv_main13 G F E)
        (let ((a!1 (ite (and (not (<= E 0)) (>= (HeapSize G) E))
                (select (HeapContents G) E)
                defObj)))
  (and (= B E) (= A (next (getTSLL a!1))) (= D G) ((_ is O_TSLL) a!1) (= C F)))
      )
      (inv_main14 D C A)
    )
  )
)
(assert
  (forall ( (A Int) (B Int) (C Heap) (D Int) (E Int) (F Int) (G Int) (H Heap) ) 
    (=>
      (and
        (inv_main41 H G F E)
        (let ((a!1 (ite (and (not (<= F 0)) (>= (HeapSize H) F))
                (select (HeapContents H) F)
                defObj)))
(let ((a!2 (O_TSLL (TSLL E (prev (getTSLL a!1)) (data (getTSLL a!1))))))
(let ((a!3 (ite (and (not (<= F 0)) (>= (HeapSize H) F))
                (HeapCtor (HeapSize H) (store (HeapContents H) F a!2))
                H)))
  (and (not (= D 0)) (= D E) (= B G) (= C a!3) ((_ is O_TSLL) a!1) (= A F)))))
      )
      (inv_main44 C B A D)
    )
  )
)
(assert
  (forall ( (A Int) (B Int) (C Heap) (D Int) (E Int) (F Int) (G Int) (H Heap) ) 
    (=>
      (and
        (inv_main28 H G F)
        (let ((a!1 (ite (and (not (<= F 0)) (>= (HeapSize H) F))
                (select (HeapContents H) F)
                defObj)))
  (and (= E 0)
       (not (= D 0))
       (= D (next (getTSLL a!1)))
       (= B G)
       (= C H)
       ((_ is O_TSLL) a!1)
       (= A F)))
      )
      (inv_main32 C B A)
    )
  )
)
(assert
  (forall ( (A Int) (B Int) (C Heap) (D Int) (E Int) (F Int) (G Heap) ) 
    (=>
      (and
        (inv_main49 G F E)
        (let ((a!1 (ite (and (not (<= E 0)) (>= (HeapSize G) E))
                (select (HeapContents G) E)
                defObj)))
  (and (= D (data (getTSLL a!1)))
       (= B F)
       (= A E)
       (= C G)
       ((_ is O_TSLL) a!1)
       (= D 1)))
      )
      (inv_main50 C B A)
    )
  )
)
(assert
  (forall ( (A Int) (B Int) (C Int) (D Int) (E Heap) ) 
    (=>
      (and
        (inv_main44 E D C B)
        (let ((a!1 (ite (and (not (<= B 0)) (>= (HeapSize E) B))
                (select (HeapContents E) B)
                defObj)))
  (and ((_ is O_TSLL) a!1) (= A (prev (getTSLL a!1)))))
      )
      (inv_main47 E D C B A)
    )
  )
)
(assert
  (forall ( (A Heap) (B Int) (C Int) (D Heap) ) 
    (=>
      (and
        (inv_main11 D C B)
        (let ((a!1 (ite (and (not (<= B 0)) (>= (HeapSize D) B))
                (select (HeapContents D) B)
                defObj)))
(let ((a!2 (not (<= (next (getTSLL a!1)) 0))))
(let ((a!3 (and a!2 (>= (HeapSize D) (next (getTSLL a!1))))))
(let ((a!4 (ite a!3 (select (HeapContents D) (next (getTSLL a!1))) defObj)))
(let ((a!5 (O_TSLL (TSLL (next (getTSLL a!4)) B (data (getTSLL a!4))))))
(let ((a!6 (HeapCtor (HeapSize D)
                     (store (HeapContents D) (next (getTSLL a!1)) a!5))))
  (and ((_ is O_TSLL) a!4) ((_ is O_TSLL) a!1) (= A (ite a!3 a!6 D)))))))))
      )
      (inv_main13 A C B)
    )
  )
)
(assert
  (forall ( (A Heap) (B Int) (C Int) (D Heap) ) 
    (=>
      (and
        (inv_main24 D C B)
        (let ((a!1 (ite (and (not (<= B 0)) (>= (HeapSize D) B))
                (select (HeapContents D) B)
                defObj)))
(let ((a!2 (O_TSLL (TSLL C (prev (getTSLL a!1)) (data (getTSLL a!1))))))
(let ((a!3 (ite (and (not (<= B 0)) (>= (HeapSize D) B))
                (HeapCtor (HeapSize D) (store (HeapContents D) B a!2))
                D)))
  (and ((_ is O_TSLL) a!1) (= A a!3)))))
      )
      (inv_main25 A C B)
    )
  )
)
(assert
  (forall ( (A Int) (B Int) (C Heap) (v_3 Int) ) 
    (=>
      (and
        (inv_main71 C B A)
        (and (= A 0) (= 0 v_3))
      )
      (inv_main0 C v_3)
    )
  )
)
(assert
  (forall ( (A Heap) (B Int) (C Heap) ) 
    (=>
      (and
        (inv_main4 C B)
        (let ((a!1 (ite (and (not (<= B 0)) (>= (HeapSize C) B))
                (select (HeapContents C) B)
                defObj)))
(let ((a!2 (O_TSLL (TSLL (next (getTSLL a!1)) 0 (data (getTSLL a!1))))))
(let ((a!3 (ite (and (not (<= B 0)) (>= (HeapSize C) B))
                (HeapCtor (HeapSize C) (store (HeapContents C) B a!2))
                C)))
  (and ((_ is O_TSLL) a!1) (= A a!3)))))
      )
      (inv_main5 A B)
    )
  )
)
(assert
  (forall ( (A Int) (B Heap) (C TSLL) (D Heap) ) 
    (=>
      (and
        (inv_main2 D)
        (let ((a!1 (HeapCtor (+ 1 (HeapSize D))
                     (store (HeapContents D) (+ 1 (HeapSize D)) (O_TSLL C)))))
  (and (= B a!1) (= A (+ 1 (HeapSize D)))))
      )
      (inv_main3 B A)
    )
  )
)
(assert
  (forall ( (A Int) (B Heap) (C TSLL) (D Int) (E Int) (F Int) (G Heap) ) 
    (=>
      (and
        (inv_main7 G F E)
        (let ((a!1 (HeapCtor (+ 1 (HeapSize G))
                     (store (HeapContents G) (+ 1 (HeapSize G)) (O_TSLL C)))))
  (and (= A (+ 1 (HeapSize G))) (= B a!1) (not (= D 0))))
      )
      (inv_main12 B F E A)
    )
  )
)
(assert
  (forall ( (A Int) (B Int) (C Heap) (D Int) (E Int) (F Int) (G Heap) ) 
    (=>
      (and
        (inv_main58 G F E)
        (let ((a!1 (ite (and (not (<= E 0)) (>= (HeapSize G) E))
                (select (HeapContents G) E)
                defObj)))
  (and (= D (data (getTSLL a!1)))
       (= B F)
       (= A E)
       (= C G)
       ((_ is O_TSLL) a!1)
       (not (= D 1))))
      )
      (inv_main59 C B A)
    )
  )
)
(assert
  (forall ( (A Heap) (B Int) (C Heap) ) 
    (=>
      (and
        (inv_main3 C B)
        (let ((a!1 (ite (and (not (<= B 0)) (>= (HeapSize C) B))
                (select (HeapContents C) B)
                defObj)))
(let ((a!2 (O_TSLL (TSLL 0 (prev (getTSLL a!1)) (data (getTSLL a!1))))))
(let ((a!3 (ite (and (not (<= B 0)) (>= (HeapSize C) B))
                (HeapCtor (HeapSize C) (store (HeapContents C) B a!2))
                C)))
  (and ((_ is O_TSLL) a!1) (= A a!3)))))
      )
      (inv_main4 A B)
    )
  )
)
(assert
  (forall ( (A Int) (B Int) (C Int) (D Int) (E Int) (F TSLL) (G Heap) (H Int) (I Int) (J Heap) ) 
    (=>
      (and
        (inv_main7 J I H)
        (let ((a!1 (HeapCtor (+ 1 (HeapSize J))
                     (store (HeapContents J) (+ 1 (HeapSize J)) (O_TSLL F)))))
  (and (= E I) (= D H) (not (= B 0)) (= A 0) (= G a!1) (= C (+ 1 (HeapSize J)))))
      )
      (inv_main22 G E C)
    )
  )
)
(assert
  (forall ( (A Int) (B Heap) (C TSLL) (D Int) (E Int) (F Int) (G Heap) (H Int) (I Int) (J Heap) ) 
    (=>
      (and
        (inv_main29 J I H)
        (let ((a!1 (ite (and (not (<= H 0)) (>= (HeapSize J) H))
                (select (HeapContents J) H)
                defObj))
      (a!2 (HeapCtor (+ 1 (HeapSize G))
                     (store (HeapContents G) (+ 1 (HeapSize G)) (O_TSLL C)))))
  (and (= E H)
       (= D (next (getTSLL a!1)))
       (= A (+ 1 (HeapSize G)))
       (= B a!2)
       (= G J)
       ((_ is O_TSLL) a!1)
       (= F I)))
      )
      (inv_main40 B F E D A)
    )
  )
)
(assert
  (forall ( (A Int) (B Heap) ) 
    (=>
      (and
        (inv_main3 B A)
        (let ((a!1 (ite (and (not (<= A 0)) (>= (HeapSize B) A))
                (select (HeapContents B) A)
                defObj)))
  (not ((_ is O_TSLL) a!1)))
      )
      CHC_COMP_FALSE
    )
  )
)
(assert
  (forall ( (A Int) (B Heap) ) 
    (=>
      (and
        (inv_main4 B A)
        (let ((a!1 (ite (and (not (<= A 0)) (>= (HeapSize B) A))
                (select (HeapContents B) A)
                defObj)))
  (not ((_ is O_TSLL) a!1)))
      )
      CHC_COMP_FALSE
    )
  )
)
(assert
  (forall ( (A Int) (B Heap) ) 
    (=>
      (and
        (inv_main5 B A)
        (let ((a!1 (ite (and (not (<= A 0)) (>= (HeapSize B) A))
                (select (HeapContents B) A)
                defObj)))
  (not ((_ is O_TSLL) a!1)))
      )
      CHC_COMP_FALSE
    )
  )
)
(assert
  (forall ( (A Int) (B Int) (C Int) (D Heap) ) 
    (=>
      (and
        (inv_main12 D C B A)
        (let ((a!1 (ite (and (not (<= B 0)) (>= (HeapSize D) B))
                (select (HeapContents D) B)
                defObj)))
  (not ((_ is O_TSLL) a!1)))
      )
      CHC_COMP_FALSE
    )
  )
)
(assert
  (forall ( (A Int) (B Int) (C Heap) ) 
    (=>
      (and
        (inv_main11 C B A)
        (let ((a!1 (ite (and (not (<= A 0)) (>= (HeapSize C) A))
                (select (HeapContents C) A)
                defObj)))
  (not ((_ is O_TSLL) a!1)))
      )
      CHC_COMP_FALSE
    )
  )
)
(assert
  (forall ( (A Int) (B Int) (C Heap) ) 
    (=>
      (and
        (inv_main11 C B A)
        (let ((a!1 (ite (and (not (<= A 0)) (>= (HeapSize C) A))
                (select (HeapContents C) A)
                defObj)))
(let ((a!2 (not (<= (next (getTSLL a!1)) 0))))
(let ((a!3 (and a!2 (>= (HeapSize C) (next (getTSLL a!1))))))
(let ((a!4 (ite a!3 (select (HeapContents C) (next (getTSLL a!1))) defObj)))
  (and ((_ is O_TSLL) a!1) (not ((_ is O_TSLL) a!4)))))))
      )
      CHC_COMP_FALSE
    )
  )
)
(assert
  (forall ( (A Int) (B Int) (C Heap) ) 
    (=>
      (and
        (inv_main13 C B A)
        (let ((a!1 (ite (and (not (<= A 0)) (>= (HeapSize C) A))
                (select (HeapContents C) A)
                defObj)))
  (not ((_ is O_TSLL) a!1)))
      )
      CHC_COMP_FALSE
    )
  )
)
(assert
  (forall ( (A Int) (B Int) (C Heap) ) 
    (=>
      (and
        (inv_main14 C B A)
        (let ((a!1 (ite (and (not (<= A 0)) (>= (HeapSize C) A))
                (select (HeapContents C) A)
                defObj)))
  (not ((_ is O_TSLL) a!1)))
      )
      CHC_COMP_FALSE
    )
  )
)
(assert
  (forall ( (A Int) (B Int) (C Heap) ) 
    (=>
      (and
        (inv_main16 C B A)
        (let ((a!1 (ite (and (not (<= A 0)) (>= (HeapSize C) A))
                (select (HeapContents C) A)
                defObj)))
  (not ((_ is O_TSLL) a!1)))
      )
      CHC_COMP_FALSE
    )
  )
)
(assert
  (forall ( (A Int) (B Int) (C Heap) ) 
    (=>
      (and
        (inv_main22 C B A)
        (let ((a!1 (ite (and (not (<= A 0)) (>= (HeapSize C) A))
                (select (HeapContents C) A)
                defObj)))
  (not ((_ is O_TSLL) a!1)))
      )
      CHC_COMP_FALSE
    )
  )
)
(assert
  (forall ( (A Int) (B Int) (C Heap) ) 
    (=>
      (and
        (inv_main24 C B A)
        (let ((a!1 (ite (and (not (<= A 0)) (>= (HeapSize C) A))
                (select (HeapContents C) A)
                defObj)))
  (not ((_ is O_TSLL) a!1)))
      )
      CHC_COMP_FALSE
    )
  )
)
(assert
  (forall ( (A Int) (B Int) (C Heap) ) 
    (=>
      (and
        (inv_main25 C B A)
        (let ((a!1 (ite (and (not (<= A 0)) (>= (HeapSize C) A))
                (select (HeapContents C) A)
                defObj)))
  (not ((_ is O_TSLL) a!1)))
      )
      CHC_COMP_FALSE
    )
  )
)
(assert
  (forall ( (A Int) (B Int) (C Heap) ) 
    (=>
      (and
        (inv_main28 C B A)
        (let ((a!1 (ite (and (not (<= A 0)) (>= (HeapSize C) A))
                (select (HeapContents C) A)
                defObj)))
  (not ((_ is O_TSLL) a!1)))
      )
      CHC_COMP_FALSE
    )
  )
)
(assert
  (forall ( (A Int) (B Int) (C Heap) ) 
    (=>
      (and
        (inv_main32 C B A)
        (let ((a!1 (ite (and (not (<= A 0)) (>= (HeapSize C) A))
                (select (HeapContents C) A)
                defObj)))
  (not ((_ is O_TSLL) a!1)))
      )
      CHC_COMP_FALSE
    )
  )
)
(assert
  (forall ( (A Int) (B Int) (C Heap) ) 
    (=>
      (and
        (inv_main29 C B A)
        (let ((a!1 (ite (and (not (<= A 0)) (>= (HeapSize C) A))
                (select (HeapContents C) A)
                defObj)))
  (not ((_ is O_TSLL) a!1)))
      )
      CHC_COMP_FALSE
    )
  )
)
(assert
  (forall ( (A Int) (B Int) (C Int) (D Int) (E Heap) ) 
    (=>
      (and
        (inv_main40 E D C B A)
        (let ((a!1 (ite (and (not (<= C 0)) (>= (HeapSize E) C))
                (select (HeapContents E) C)
                defObj)))
  (not ((_ is O_TSLL) a!1)))
      )
      CHC_COMP_FALSE
    )
  )
)
(assert
  (forall ( (A Int) (B Int) (C Int) (D Heap) ) 
    (=>
      (and
        (inv_main39 D C B A)
        (let ((a!1 (ite (and (not (<= B 0)) (>= (HeapSize D) B))
                (select (HeapContents D) B)
                defObj)))
  (not ((_ is O_TSLL) a!1)))
      )
      CHC_COMP_FALSE
    )
  )
)
(assert
  (forall ( (A Int) (B Int) (C Int) (D Heap) ) 
    (=>
      (and
        (inv_main41 D C B A)
        (let ((a!1 (ite (and (not (<= B 0)) (>= (HeapSize D) B))
                (select (HeapContents D) B)
                defObj)))
  (not ((_ is O_TSLL) a!1)))
      )
      CHC_COMP_FALSE
    )
  )
)
(assert
  (forall ( (A Int) (B Int) (C Int) (D Heap) ) 
    (=>
      (and
        (inv_main44 D C B A)
        (let ((a!1 (ite (and (not (<= A 0)) (>= (HeapSize D) A))
                (select (HeapContents D) A)
                defObj)))
  (not ((_ is O_TSLL) a!1)))
      )
      CHC_COMP_FALSE
    )
  )
)
(assert
  (forall ( (A Int) (B Int) (C Int) (D Int) (E Heap) ) 
    (=>
      (and
        (inv_main47 E D C B A)
        (let ((a!1 (ite (and (not (<= C 0)) (>= (HeapSize E) C))
                (select (HeapContents E) C)
                defObj)))
  (not ((_ is O_TSLL) a!1)))
      )
      CHC_COMP_FALSE
    )
  )
)
(assert
  (forall ( (A Int) (B Int) (C Int) (D Heap) ) 
    (=>
      (and
        (inv_main46 D C B A)
        (let ((a!1 (ite (and (not (<= A 0)) (>= (HeapSize D) A))
                (select (HeapContents D) A)
                defObj)))
  (not ((_ is O_TSLL) a!1)))
      )
      CHC_COMP_FALSE
    )
  )
)
(assert
  (forall ( (A Int) (B Int) (C Heap) ) 
    (=>
      (and
        (inv_main49 C B A)
        (let ((a!1 (ite (and (not (<= A 0)) (>= (HeapSize C) A))
                (select (HeapContents C) A)
                defObj)))
  (not ((_ is O_TSLL) a!1)))
      )
      CHC_COMP_FALSE
    )
  )
)
(assert
  (forall ( (A Int) (B Int) (C Heap) ) 
    (=>
      (and
        (inv_main51 C B A)
        (let ((a!1 (ite (and (not (<= A 0)) (>= (HeapSize C) A))
                (select (HeapContents C) A)
                defObj)))
  (not ((_ is O_TSLL) a!1)))
      )
      CHC_COMP_FALSE
    )
  )
)
(assert
  (forall ( (A Int) (B Int) (C Heap) ) 
    (=>
      (and
        (inv_main50 C B A)
        (let ((a!1 (ite (and (not (<= A 0)) (>= (HeapSize C) A))
                (select (HeapContents C) A)
                defObj)))
  (not ((_ is O_TSLL) a!1)))
      )
      CHC_COMP_FALSE
    )
  )
)
(assert
  (forall ( (A Int) (B Int) (C Heap) ) 
    (=>
      (and
        (inv_main58 C B A)
        (let ((a!1 (ite (and (not (<= A 0)) (>= (HeapSize C) A))
                (select (HeapContents C) A)
                defObj)))
  (not ((_ is O_TSLL) a!1)))
      )
      CHC_COMP_FALSE
    )
  )
)
(assert
  (forall ( (A Int) (B Int) (C Heap) ) 
    (=>
      (and
        (inv_main65 C B A)
        true
      )
      CHC_COMP_FALSE
    )
  )
)
(assert
  (forall ( (A Int) (B Int) (C Heap) ) 
    (=>
      (and
        (inv_main59 C B A)
        (let ((a!1 (ite (and (not (<= A 0)) (>= (HeapSize C) A))
                (select (HeapContents C) A)
                defObj)))
  (not ((_ is O_TSLL) a!1)))
      )
      CHC_COMP_FALSE
    )
  )
)
(assert
  (forall ( (A Int) (B Int) (C Heap) ) 
    (=>
      (and
        (inv_main74 C B A)
        (let ((a!1 (ite (and (not (<= A 0)) (>= (HeapSize C) A))
                (select (HeapContents C) A)
                defObj)))
  (not ((_ is O_TSLL) a!1)))
      )
      CHC_COMP_FALSE
    )
  )
)
(assert
  (forall ( (A Int) (B Int) (C Heap) ) 
    (=>
      (and
        (inv_main0 C B)
        (let ((a!1 (not (= (select (HeapContents C) A) defObj))))
  (and (>= (HeapSize C) A) (not (<= A 0)) a!1))
      )
      CHC_COMP_FALSE
    )
  )
)
(assert
  (forall ( (CHC_COMP_UNUSED Bool) ) 
    (=>
      (and
        CHC_COMP_FALSE
      )
      false
    )
  )
)

(check-sat)
(exit)
